
(set-logic HORN)
(declare-fun Z_484 () Int)
(declare-fun S_167 (Int) Int)
(declare-fun diseqInt (Int Int) Bool)
(declare-fun unS_181 (Int Int) Bool)
(declare-fun isZ_163 (Int) Bool)
(declare-fun isS_163 (Int) Bool)
(assert (forall ((x_7022 Int))
	(unS_181 x_7022 (S_167 x_7022))))
(assert (isZ_163 Z_484))
(assert (forall ((x_7024 Int))
	(isS_163 (S_167 x_7024))))
(assert (forall ((x_7025 Int))
	(diseqInt Z_484 (S_167 x_7025))))
(assert (forall ((x_7026 Int))
	(diseqInt (S_167 x_7026) Z_484)))
(assert (forall ((x_7027 Int) (x_7028 Int))
	(=> (diseqInt x_7027 x_7028) (diseqInt (S_167 x_7027) (S_167 x_7028)))))
(declare-fun add_90 (Int Int Int) Bool)
(declare-fun minus_90 (Int Int Int) Bool)
(declare-fun le_90 (Int Int) Bool)
(declare-fun ge_90 (Int Int) Bool)
(declare-fun lt_91 (Int Int) Bool)
(declare-fun gt_91 (Int Int) Bool)
(declare-fun mult_90 (Int Int Int) Bool)
(declare-fun div_90 (Int Int Int) Bool)
(declare-fun mod_90 (Int Int Int) Bool)
(assert (forall ((y_411 Int))
	(add_90 y_411 Z_484 y_411)))
(assert (forall ((x_7013 Int) (y_411 Int) (r_97 Int))
	(=> (add_90 r_97 x_7013 y_411) (add_90 (S_167 r_97) (S_167 x_7013) y_411))))
(assert (forall ((y_411 Int))
	(minus_90 Z_484 Z_484 y_411)))
(assert (forall ((x_7013 Int) (y_411 Int) (r_97 Int))
	(=> (minus_90 r_97 x_7013 y_411) (minus_90 (S_167 r_97) (S_167 x_7013) y_411))))
(assert (forall ((y_411 Int))
	(le_90 Z_484 y_411)))
(assert (forall ((x_7013 Int) (y_411 Int))
	(=> (le_90 x_7013 y_411) (le_90 (S_167 x_7013) (S_167 y_411)))))
(assert (forall ((y_411 Int))
	(ge_90 y_411 Z_484)))
(assert (forall ((x_7013 Int) (y_411 Int))
	(=> (ge_90 x_7013 y_411) (ge_90 (S_167 x_7013) (S_167 y_411)))))
(assert (forall ((y_411 Int))
	(lt_91 Z_484 (S_167 y_411))))
(assert (forall ((x_7013 Int) (y_411 Int))
	(=> (lt_91 x_7013 y_411) (lt_91 (S_167 x_7013) (S_167 y_411)))))
(assert (forall ((y_411 Int))
	(gt_91 (S_167 y_411) Z_484)))
(assert (forall ((x_7013 Int) (y_411 Int))
	(=> (gt_91 x_7013 y_411) (gt_91 (S_167 x_7013) (S_167 y_411)))))
(assert (forall ((y_411 Int))
	(mult_90 Z_484 Z_484 y_411)))
(assert (forall ((x_7013 Int) (y_411 Int) (r_97 Int) (z_485 Int))
	(=> (and (mult_90 r_97 x_7013 y_411) (add_90 z_485 r_97 y_411)) (mult_90 z_485 (S_167 x_7013) y_411))))
(assert (forall ((x_7013 Int) (y_411 Int))
	(=> (lt_91 x_7013 y_411) (div_90 Z_484 x_7013 y_411))))
(assert (forall ((x_7013 Int) (y_411 Int) (r_97 Int) (z_485 Int))
	(=> (and (ge_90 x_7013 y_411) (minus_90 z_485 x_7013 y_411) (div_90 r_97 z_485 y_411)) (div_90 (S_167 r_97) x_7013 y_411))))
(assert (forall ((x_7013 Int) (y_411 Int))
	(=> (lt_91 x_7013 y_411) (mod_90 x_7013 x_7013 y_411))))
(assert (forall ((x_7013 Int) (y_411 Int) (r_97 Int) (z_485 Int))
	(=> (and (ge_90 x_7013 y_411) (minus_90 z_485 x_7013 y_411) (mod_90 r_97 z_485 y_411)) (mod_90 r_97 x_7013 y_411))))
(declare-datatypes ((Bool_90 0)) (((false_90) (true_90))))
(declare-fun diseqBool_39 (Bool_90 Bool_90) Bool)
(declare-fun isfalse_39 (Bool_90) Bool)
(declare-fun istrue_39 (Bool_90) Bool)
(assert (isfalse_39 false_90))
(assert (istrue_39 true_90))
(assert (diseqBool_39 false_90 true_90))
(assert (diseqBool_39 true_90 false_90))
(declare-fun and_90 (Bool_90 Bool_90 Bool_90) Bool)
(declare-fun or_91 (Bool_90 Bool_90 Bool_90) Bool)
(declare-fun hence_90 (Bool_90 Bool_90 Bool_90) Bool)
(declare-fun not_90 (Bool_90 Bool_90) Bool)
(assert (and_90 false_90 false_90 false_90))
(assert (and_90 false_90 true_90 false_90))
(assert (and_90 false_90 false_90 true_90))
(assert (and_90 true_90 true_90 true_90))
(assert (or_91 false_90 false_90 false_90))
(assert (or_91 true_90 true_90 false_90))
(assert (or_91 true_90 false_90 true_90))
(assert (or_91 true_90 true_90 true_90))
(assert (hence_90 true_90 false_90 false_90))
(assert (hence_90 false_90 true_90 false_90))
(assert (hence_90 true_90 false_90 true_90))
(assert (hence_90 true_90 true_90 true_90))
(assert (not_90 true_90 false_90))
(assert (not_90 false_90 true_90))
(declare-datatypes ((list_73 0)) (((nil_76) (cons_73 (head_146 Int) (tail_146 list_73)))))
(declare-fun diseqlist_73 (list_73 list_73) Bool)
(declare-fun head_147 (Int list_73) Bool)
(declare-fun tail_147 (list_73 list_73) Bool)
(declare-fun isnil_76 (list_73) Bool)
(declare-fun iscons_73 (list_73) Bool)
(assert (forall ((x_7032 Int) (x_7033 list_73))
	(head_147 x_7032 (cons_73 x_7032 x_7033))))
(assert (forall ((x_7032 Int) (x_7033 list_73))
	(tail_147 x_7033 (cons_73 x_7032 x_7033))))
(assert (isnil_76 nil_76))
(assert (forall ((x_7035 Int) (x_7036 list_73))
	(iscons_73 (cons_73 x_7035 x_7036))))
(assert (forall ((x_7037 Int) (x_7038 list_73))
	(diseqlist_73 nil_76 (cons_73 x_7037 x_7038))))
(assert (forall ((x_7039 Int) (x_7040 list_73))
	(diseqlist_73 (cons_73 x_7039 x_7040) nil_76)))
(assert (forall ((x_7041 Int) (x_7042 list_73) (x_7043 Int) (x_7044 list_73))
	(=> (diseqInt x_7041 x_7043) (diseqlist_73 (cons_73 x_7041 x_7042) (cons_73 x_7043 x_7044)))))
(assert (forall ((x_7041 Int) (x_7042 list_73) (x_7043 Int) (x_7044 list_73))
	(=> (diseqlist_73 x_7042 x_7044) (diseqlist_73 (cons_73 x_7041 x_7042) (cons_73 x_7043 x_7044)))))
(declare-datatypes ((pair_20 0)) (((pair_21 (projpair_40 list_73) (projpair_41 list_73)))))
(declare-fun diseqpair_10 (pair_20 pair_20) Bool)
(declare-fun projpair_42 (list_73 pair_20) Bool)
(declare-fun projpair_43 (list_73 pair_20) Bool)
(declare-fun ispair_10 (pair_20) Bool)
(assert (forall ((x_7045 list_73) (x_7046 list_73))
	(projpair_42 x_7045 (pair_21 x_7045 x_7046))))
(assert (forall ((x_7045 list_73) (x_7046 list_73))
	(projpair_43 x_7046 (pair_21 x_7045 x_7046))))
(assert (forall ((x_7048 list_73) (x_7049 list_73))
	(ispair_10 (pair_21 x_7048 x_7049))))
(assert (forall ((x_7050 list_73) (x_7051 list_73) (x_7052 list_73) (x_7053 list_73))
	(=> (diseqlist_73 x_7050 x_7052) (diseqpair_10 (pair_21 x_7050 x_7051) (pair_21 x_7052 x_7053)))))
(assert (forall ((x_7050 list_73) (x_7051 list_73) (x_7052 list_73) (x_7053 list_73))
	(=> (diseqlist_73 x_7051 x_7053) (diseqpair_10 (pair_21 x_7050 x_7051) (pair_21 x_7052 x_7053)))))
(declare-fun twoThirds_0 (Int Int) Bool)
(assert (twoThirds_0 (S_167 Z_484) (S_167 (S_167 Z_484))))
(assert (=> (diseqInt (S_167 Z_484) (S_167 (S_167 Z_484))) (twoThirds_0 (S_167 Z_484) (S_167 Z_484))))
(assert (twoThirds_0 (S_167 Z_484) (S_167 (S_167 Z_484))))
(assert (=> (and (diseqInt Z_484 (S_167 (S_167 Z_484))) (diseqInt Z_484 (S_167 Z_484))) (twoThirds_0 Z_484 Z_484)))
(assert (twoThirds_0 (S_167 Z_484) (S_167 (S_167 Z_484))))
(assert (=> (diseqInt (S_167 Z_484) (S_167 (S_167 Z_484))) (twoThirds_0 (S_167 Z_484) (S_167 Z_484))))
(assert (twoThirds_0 (S_167 Z_484) (S_167 (S_167 Z_484))))
(assert (forall ((x_7015 Int) (x_6954 Int) (x_6955 Int) (x_6931 Int))
	(=> (and (diseqInt x_6931 (S_167 (S_167 Z_484))) (diseqInt x_6931 (S_167 Z_484)) (diseqInt x_6931 Z_484) (twoThirds_0 x_6955 x_7015) (minus_90 x_7015 x_6931 (S_167 (S_167 (S_167 Z_484)))) (add_90 x_6954 (S_167 (S_167 Z_484)) x_6955)) (twoThirds_0 x_6954 x_6931))))
(declare-fun third_0 (Int Int) Bool)
(assert (third_0 Z_484 (S_167 (S_167 Z_484))))
(assert (=> (diseqInt (S_167 Z_484) (S_167 (S_167 Z_484))) (third_0 Z_484 (S_167 Z_484))))
(assert (third_0 Z_484 (S_167 (S_167 Z_484))))
(assert (=> (and (diseqInt Z_484 (S_167 (S_167 Z_484))) (diseqInt Z_484 (S_167 Z_484))) (third_0 Z_484 Z_484)))
(assert (third_0 Z_484 (S_167 (S_167 Z_484))))
(assert (=> (diseqInt (S_167 Z_484) (S_167 (S_167 Z_484))) (third_0 Z_484 (S_167 Z_484))))
(assert (third_0 Z_484 (S_167 (S_167 Z_484))))
(assert (forall ((x_7017 Int) (x_6963 Int) (x_6964 Int) (x_6932 Int))
	(=> (and (diseqInt x_6932 (S_167 (S_167 Z_484))) (diseqInt x_6932 (S_167 Z_484)) (diseqInt x_6932 Z_484) (third_0 x_6964 x_7017) (minus_90 x_7017 x_6932 (S_167 (S_167 (S_167 Z_484)))) (add_90 x_6963 (S_167 Z_484) x_6964)) (third_0 x_6963 x_6932))))
(declare-fun take_13 (list_73 Int list_73) Bool)
(assert (forall ((x_6933 Int) (y_401 list_73))
	(=> (le_90 x_6933 Z_484) (take_13 nil_76 x_6933 y_401))))
(assert (forall ((x_7018 Int) (x_6967 list_73) (z_479 Int) (xs_139 list_73) (x_6933 Int))
	(=> (and (gt_91 x_6933 Z_484) (take_13 x_6967 x_7018 xs_139) (minus_90 x_7018 x_6933 (S_167 Z_484))) (take_13 (cons_73 z_479 x_6967) x_6933 (cons_73 z_479 xs_139)))))
(assert (forall ((x_6933 Int) (y_401 list_73))
	(=> (le_90 x_6933 Z_484) (take_13 nil_76 x_6933 y_401))))
(assert (forall ((x_6933 Int))
	(=> (gt_91 x_6933 Z_484) (take_13 nil_76 x_6933 nil_76))))
(declare-fun sort_4 (list_73 Int Int) Bool)
(assert (forall ((x_6934 Int) (y_402 Int))
	(=> (le_90 x_6934 y_402) (sort_4 (cons_73 x_6934 (cons_73 y_402 nil_76)) x_6934 y_402))))
(assert (forall ((x_6934 Int) (y_402 Int))
	(=> (gt_91 x_6934 y_402) (sort_4 (cons_73 y_402 (cons_73 x_6934 nil_76)) x_6934 y_402))))
(declare-fun ordered_0 (Bool_90 list_73) Bool)
(assert (forall ((x_6972 Bool_90) (y_404 Int) (xs_140 list_73) (y_403 Int))
	(=> (and (le_90 y_403 y_404) (ordered_0 x_6972 (cons_73 y_404 xs_140))) (ordered_0 x_6972 (cons_73 y_403 (cons_73 y_404 xs_140))))))
(assert (forall ((y_404 Int) (xs_140 list_73) (y_403 Int))
	(=> (gt_91 y_403 y_404) (ordered_0 false_90 (cons_73 y_403 (cons_73 y_404 xs_140))))))
(assert (forall ((y_403 Int))
	(ordered_0 true_90 (cons_73 y_403 nil_76))))
(assert (ordered_0 true_90 nil_76))
(declare-fun length_0 (Int list_73) Bool)
(assert (forall ((x_6977 Int) (x_6978 Int) (y_405 Int) (l_2 list_73))
	(=> (and (length_0 x_6978 l_2) (add_90 x_6977 (S_167 Z_484) x_6978)) (length_0 x_6977 (cons_73 y_405 l_2)))))
(assert (length_0 Z_484 nil_76))
(declare-fun drop_15 (list_73 Int list_73) Bool)
(assert (forall ((x_6980 list_73) (x_6937 Int))
	(=> (le_90 x_6937 Z_484) (drop_15 x_6980 x_6937 x_6980))))
(assert (forall ((x_7020 Int) (x_6981 list_73) (z_481 Int) (xs_141 list_73) (x_6937 Int))
	(=> (and (gt_91 x_6937 Z_484) (drop_15 x_6981 x_7020 xs_141) (minus_90 x_7020 x_6937 (S_167 Z_484))) (drop_15 x_6981 x_6937 (cons_73 z_481 xs_141)))))
(assert (forall ((x_6983 list_73) (x_6937 Int))
	(=> (le_90 x_6937 Z_484) (drop_15 x_6983 x_6937 x_6983))))
(assert (forall ((x_6937 Int))
	(=> (gt_91 x_6937 Z_484) (drop_15 nil_76 x_6937 nil_76))))
(declare-fun splitAt_0 (pair_20 Int list_73) Bool)
(assert (forall ((x_6986 list_73) (x_6987 list_73) (x_6938 Int) (y_407 list_73))
	(=> (and (take_13 x_6986 x_6938 y_407) (drop_15 x_6987 x_6938 y_407)) (splitAt_0 (pair_21 x_6986 x_6987) x_6938 y_407))))
(declare-fun x_6939 (list_73 list_73 list_73) Bool)
(assert (forall ((x_6989 list_73) (z_482 Int) (xs_142 list_73) (y_408 list_73))
	(=> (x_6939 x_6989 xs_142 y_408) (x_6939 (cons_73 z_482 x_6989) (cons_73 z_482 xs_142) y_408))))
(assert (forall ((x_6990 list_73))
	(x_6939 x_6990 nil_76 x_6990)))
(declare-fun nstoogesort_0 (list_73 list_73) Bool)
(declare-fun nstoogesort_1 (list_73 list_73) Bool)
(declare-fun nstoogesort_2 (list_73 list_73) Bool)
(assert (forall ((x_6994 list_73) (x_6995 list_73) (x_6991 Int) (x_6992 Int) (ys_34 list_73) (zs_3 list_73) (x_6941 list_73))
	(=> (and (nstoogesort_1 x_6995 ys_34) (x_6939 x_6994 x_6995 zs_3) (length_0 x_6991 x_6941) (twoThirds_0 x_6992 x_6991) (splitAt_0 (pair_21 ys_34 zs_3) x_6992 x_6941)) (nstoogesort_0 x_6994 x_6941))))
(assert (forall ((x_6997 list_73) (x_6998 list_73) (x_6999 list_73) (x_6944 Int) (x_6945 list_73) (y_410 Int) (y_409 Int))
	(=> (and (nstoogesort_0 x_6998 (cons_73 y_409 (cons_73 y_410 (cons_73 x_6944 x_6945)))) (nstoogesort_2 x_6999 x_6998) (nstoogesort_0 x_6997 x_6999)) (nstoogesort_1 x_6997 (cons_73 y_409 (cons_73 y_410 (cons_73 x_6944 x_6945)))))))
(assert (forall ((x_7001 list_73) (y_410 Int) (y_409 Int))
	(=> (sort_4 x_7001 y_409 y_410) (nstoogesort_1 x_7001 (cons_73 y_409 (cons_73 y_410 nil_76))))))
(assert (forall ((y_409 Int))
	(nstoogesort_1 (cons_73 y_409 nil_76) (cons_73 y_409 nil_76))))
(assert (nstoogesort_1 nil_76 nil_76))
(assert (forall ((x_7008 list_73) (x_7009 list_73) (x_7005 Int) (x_7006 Int) (ys_35 list_73) (zs_4 list_73) (x_6946 list_73))
	(=> (and (nstoogesort_1 x_7009 zs_4) (x_6939 x_7008 ys_35 x_7009) (length_0 x_7005 x_6946) (third_0 x_7006 x_7005) (splitAt_0 (pair_21 ys_35 zs_4) x_7006 x_6946)) (nstoogesort_2 x_7008 x_6946))))
(assert (forall ((x_7011 list_73) (xs_143 list_73))
	(=> (and true (nstoogesort_1 x_7011 xs_143) (ordered_0 false_90 x_7011)) false)))
(check-sat)
